
  22    4
  10   10   10   10

   0   0   0   0   0   2 2 3 
   3  10  10  10  10   3 8 5 4 
   4  10  10  10  10   2 7 5 
   9  10  10  10  10   1 6 
   7  10  10  10  10   4 13 12 10 9 
   9  10  10  10  10   3 13 11 7 
   6  10  10  10  10   4 16 14 12 10 
   4  10  10  10  10   3 13 12 10 
   1  10  10  10  10   3 21 16 11 
   3  10  10  10  10   3 21 19 15 
   3  10  10  10  10   2 15 14 
   3  10  10  10  10   4 21 20 19 17 
   4  10  10  10  10   2 21 14 
   6  10  10  10  10   2 19 17 
   2  10  10  10  10   2 20 17 
   9  10  10  10  10   1 17 
   1  10  10  10  10   1 18 
  10  10  10  10  10   1 22
   5  10  10  10  10   1 22
   8  10  10  10  10   1 22
   3  10  10  10  10   1 22
   0   0   0   0   0   0 
